500
1000
300
299
299
299
298
298
297
297
296
295
295
295
295
295
295
294
294
293
293
292
292
292
292
291
291
290
290
290
289
289
289
288
288
288
288
287
287
287
287
285
285
285
284
283
283
283
283
283
283
282
282
282
281
281
279
278
277
277
276
276
276
275
275
275
275
275
275
275
275
275
274
274
274
273
273
272
272
272
271
271
271
271
271
271
270
270
269
269
269
269
268
267
267
266
265
265
265
264
264
264
264
264
263
263
263
262
262
261
261
260
260
260
260
259
259
258
257
257
256
255
255
255
254
253
252
252
252
252
251
251
251
250
249
248
248
248
247
247
246
245
245
245
244
244
244
244
243
243
243
243
242
242
242
241
241
241
240
240
239
239
239
238
237
237
237
236
235
235
235
234
234
234
234
233
233
232
232
231
231
231
230
230
229
229
229
229
228
228
228
227
226
225
224
224
224
223
223
223
222
222
222
222
222
221
221
220
219
217
217
217
217
217
216
215
215
214
214
213
212
212
212
211
210
209
209
208
207
207
207
207
207
207
206
206
206
206
204
204
204
204
203
203
199
199
199
199
199
198
198
197
197
197
197
197
197
196
196
196
195
195
194
194
194
193
193
193
193
192
192
190
190
189
189
189
188
188
187
186
186
186
186
186
185
184
184
184
184
182
182
182
182
182
181
181
181
180
179
179
179
178
178
177
177
177
177
176
176
176
175
175
175
173
173
172
172
172
171
171
171
170
170
170
169
169
169
168
168
168
167
166
166
166
166
166
165
165
164
164
163
162
162
161
161
160
160
160
160
159
159
159
158
158
158
157
156
156
153
153
153
153
152
152
152
152
151
151
151
151
150
150
149
149
149
149
149
149
149
149
148
147
147
146
145
145
145
143
143
142
142
142
142
142
141
141
141
141
141
140
140
139
139
138
137
137
136
134
134
134
134
133
132
132
132
132
132
132
131
131
131
130
130
130
129
128
128
127
127
126
126
125
125
125
125
124
124
124
123
123
122
122
122
122
121
121
121
120
119
119
118
118
118
118
117
117
117
117
117
116
116
116
116
115
115
114
114
113
113
113
113
112
112
112
112
111
110
110
110
110
110
109
109
109
108
108
108
107
106
106
106
105
105
104
104
104
103
103
103
103
103
102
